row=10;
column=10;
Board=[|1,0,1,1,0,1,0,1,1,0|1,1,1,1,1,0,0,0,0,0|0,0,0,0,0,1,0,0,0,0|1,0,0,0,0,0,0,0,0,0|0,0,0,0,1,0,0,0,1,0|0,0,0,0,0,0,0,0,0,0|1,0,0,0,0,0,0,0,0,0|0,0,0,0,0,0,0,0,0,0|0,0,1,0,0,0,1,0,0,0|0,0,0,0,0,0,0,0,0,0|];
right = [4,0,1,2,1,3,0,3,0,4];
bottom = [1,3,2,1,1,2,2,3,1,2];
